c Hard random 3-SAT, 60 vars, ratio 5.5 -> UNSAT, many conflicts/lemmas (aims to trigger RESTART + REDUCE). seed=2024
p cnf 60 330
-31 12 -47 0
-49 -46 -17 0
-23 -27 34 0
46 -22 -34 0
45 -49 -47 0
-10 -35 -14 0
41 -27 -30 0
-25 22 23 0
-37 14 58 0
-15 49 -2 0
-50 -37 52 0
42 -39 50 0
-13 -24 32 0
-40 22 46 0
45 -50 -56 0
5 -7 54 0
16 -23 15 0
30 -39 -17 0
27 13 54 0
-43 47 -17 0
-51 25 12 0
45 -58 -52 0
-25 -60 48 0
-4 34 -9 0
60 6 -33 0
-11 -6 -9 0
52 39 41 0
45 21 1 0
-41 -55 -40 0
42 13 -30 0
-41 -29 54 0
-56 29 27 0
-20 26 -13 0
8 22 -44 0
-43 -3 -14 0
4 28 -22 0
-57 17 -43 0
53 -51 55 0
2 -56 22 0
-24 -54 -30 0
11 3 -50 0
12 -33 -46 0
-52 59 57 0
56 -37 9 0
39 -46 -45 0
1 -33 8 0
-37 -51 -12 0
-49 -19 58 0
8 -26 49 0
53 50 52 0
-20 19 -44 0
-4 17 25 0
9 -42 -21 0
49 -6 33 0
-42 -34 -25 0
59 31 -52 0
-45 5 49 0
-21 13 -50 0
-3 -52 -41 0
55 -52 -28 0
5 30 -8 0
-51 38 -54 0
-11 -19 -42 0
-25 44 7 0
-45 22 -36 0
25 -9 -37 0
-14 -57 -58 0
13 -9 53 0
41 40 44 0
-31 10 18 0
57 -44 38 0
59 -19 -12 0
-33 32 -24 0
36 18 -13 0
10 48 -8 0
6 46 -57 0
-34 33 -44 0
-21 42 -33 0
-44 -14 47 0
21 -17 -22 0
17 23 10 0
-21 -13 -12 0
11 7 51 0
13 44 9 0
27 -58 16 0
-1 -48 44 0
41 -50 -29 0
44 60 27 0
-15 -60 -3 0
41 34 -53 0
-8 -24 41 0
-57 51 -31 0
51 52 -59 0
-33 41 -17 0
-58 60 -46 0
13 1 52 0
-15 -16 58 0
-54 -3 17 0
34 24 -36 0
-52 37 -33 0
-16 51 -3 0
18 -35 1 0
4 -10 14 0
6 51 47 0
53 -11 41 0
-31 -54 -27 0
-27 -49 -34 0
-57 41 -46 0
-10 -31 2 0
-27 -44 59 0
44 -11 -25 0
47 18 35 0
43 24 6 0
34 -9 52 0
-47 -50 -37 0
-32 -21 -60 0
-54 -12 15 0
-33 30 -48 0
-11 45 59 0
42 -44 -37 0
-30 23 -34 0
-57 -20 22 0
31 14 -42 0
-10 31 -42 0
22 51 -6 0
-36 -3 -38 0
42 48 11 0
49 -35 21 0
-46 22 -32 0
-29 6 33 0
-11 -44 14 0
-9 -41 14 0
8 7 -22 0
-15 -55 54 0
31 -13 1 0
50 -18 -2 0
45 49 -29 0
30 -10 6 0
11 44 -52 0
55 16 26 0
25 43 -46 0
-20 -8 45 0
-43 44 -27 0
18 -14 -48 0
-41 54 1 0
-17 -49 -31 0
-24 4 36 0
28 26 -5 0
-46 -37 -17 0
49 -39 -46 0
24 -32 -15 0
24 9 -4 0
-45 -58 -24 0
-15 -16 43 0
47 1 -31 0
1 -18 -3 0
56 13 34 0
-38 -56 33 0
-2 -8 -32 0
50 -19 52 0
-59 33 -3 0
27 -5 4 0
-28 -17 -50 0
37 -53 -42 0
50 39 -54 0
8 -25 34 0
41 -49 37 0
33 60 20 0
-48 2 -58 0
-55 1 19 0
14 -29 -2 0
13 -40 26 0
56 -59 -15 0
-1 7 26 0
28 -16 -12 0
-17 4 52 0
-37 -39 30 0
28 13 -50 0
48 -26 -21 0
28 -54 -45 0
47 -52 -58 0
-5 52 23 0
43 30 -23 0
49 40 24 0
-6 -3 23 0
52 43 42 0
-5 47 7 0
38 -18 55 0
-58 7 43 0
51 24 -16 0
-29 6 51 0
-2 11 -12 0
13 -6 -23 0
-25 1 55 0
4 23 24 0
-42 27 -43 0
-48 -9 -39 0
-24 -30 -46 0
-45 34 49 0
-34 -25 2 0
5 -8 -60 0
38 -58 40 0
20 -59 7 0
-59 -36 46 0
52 -24 53 0
-50 43 -23 0
-14 -55 45 0
15 54 -22 0
-12 48 -31 0
-10 41 -48 0
23 13 16 0
36 45 -30 0
16 -46 1 0
-38 -23 56 0
21 -24 -41 0
-58 31 -42 0
-6 7 -24 0
29 8 -57 0
-39 -3 9 0
-43 53 22 0
9 43 55 0
-27 -50 43 0
19 -60 -6 0
45 47 50 0
-38 8 45 0
-4 33 32 0
24 50 1 0
-20 -18 43 0
45 38 -17 0
-14 -44 5 0
-5 -33 -31 0
10 41 35 0
-17 -40 26 0
-39 -50 3 0
40 -52 -57 0
-45 -59 9 0
36 31 -51 0
-53 3 -14 0
41 -24 36 0
-8 54 -26 0
10 -50 -58 0
13 39 -50 0
58 10 -40 0
33 53 -12 0
7 42 31 0
-56 -16 31 0
43 -36 -58 0
50 -4 -5 0
-5 -59 -28 0
7 -60 -8 0
38 -10 13 0
-21 -7 56 0
-31 -10 -9 0
22 -15 -17 0
18 -15 20 0
42 3 7 0
11 27 -54 0
-19 -1 36 0
-23 51 -24 0
6 -18 44 0
-27 -40 -39 0
24 -8 30 0
41 -55 -30 0
38 -7 -14 0
48 -4 -32 0
-10 25 2 0
-1 56 -40 0
36 8 -14 0
53 59 31 0
60 -46 -49 0
57 -52 29 0
9 25 -38 0
2 41 44 0
-8 -7 -56 0
-7 -35 13 0
18 -19 28 0
38 -1 -46 0
12 37 -36 0
-14 11 -5 0
9 -55 -54 0
-13 57 -52 0
-37 4 -47 0
-12 31 -20 0
-51 -19 -8 0
31 -30 -44 0
7 45 42 0
44 -11 39 0
-38 7 9 0
22 19 -14 0
20 15 5 0
30 27 -52 0
45 -21 49 0
-5 40 38 0
-29 -18 13 0
5 28 39 0
-19 -47 -36 0
-8 28 -15 0
-31 33 -17 0
-49 -7 -9 0
-9 -1 -53 0
-43 -50 12 0
-56 -11 -32 0
3 56 -8 0
-43 -13 -50 0
1 14 37 0
-59 1 23 0
-8 42 -57 0
-54 32 57 0
-12 -36 -11 0
25 58 -57 0
-28 54 -2 0
-21 60 16 0
-4 -23 -48 0
17 -55 32 0
-14 -3 38 0
-41 -53 47 0
36 48 35 0
46 -35 -52 0
-45 48 -32 0
57 -23 4 0
-4 20 -38 0
-40 5 -1 0
-17 48 10 0
-42 -21 49 0
44 -25 50 0
30 57 21 0
-26 -39 -5 0
-43 11 58 0
-30 -42 -7 0
-42 -27 -21 0
