c Random 3-SAT, 20 vars, ratio 4.26 (phase transition). seed=12345
p cnf 20 85
-14 -1 10 0
14 6 -12 0
6 -18 20 0
14 19 17 0
11 20 -1 0
-14 -1 -19 0
-6 10 -4 0
-6 -13 -8 0
11 2 -8 0
-18 -6 -9 0
-2 -6 10 0
8 12 18 0
2 -15 3 0
-1 -12 7 0
2 -1 16 0
-18 -7 -12 0
-3 16 6 0
-6 -10 5 0
-1 -16 -6 0
9 -17 13 0
6 8 20 0
-6 -19 -17 0
14 11 4 0
-20 -19 7 0
-19 -10 -5 0
2 -9 -14 0
4 -3 5 0
15 -12 13 0
16 20 2 0
1 -3 -20 0
16 -6 -9 0
13 -3 10 0
-6 3 5 0
-1 5 -4 0
13 11 -2 0
9 -19 18 0
3 -4 -17 0
17 -1 -20 0
6 15 14 0
-13 12 18 0
2 11 19 0
20 2 -4 0
-2 -20 10 0
16 2 -14 0
6 -13 -18 0
-6 -7 18 0
15 -1 7 0
-4 20 9 0
-16 -12 -15 0
17 -4 -20 0
12 8 13 0
11 -8 15 0
-20 -13 -9 0
1 -17 -9 0
-7 10 -1 0
-9 8 -3 0
-1 -20 -5 0
-11 -7 -5 0
1 -7 14 0
-15 -19 -18 0
-16 20 6 0
-4 -9 11 0
13 -4 -14 0
5 -1 -12 0
13 -6 10 0
12 -8 15 0
-20 12 10 0
1 -15 12 0
17 -11 16 0
14 -11 -4 0
4 13 5 0
-4 -11 -9 0
20 19 -10 0
-19 15 20 0
10 -2 -17 0
7 -9 -12 0
8 2 5 0
-14 -1 -6 0
-16 -4 12 0
12 5 20 0
11 13 -3 0
6 18 -5 0
-9 -5 -19 0
-9 10 1 0
-7 13 -4 0
