c Random 3-SAT, 50 vars, ratio 4.26 (phase transition). seed=6789
p cnf 50 213
-9 -40 10 0
49 -41 25 0
-46 24 31 0
40 38 39 0
-16 17 19 0
-47 42 14 0
36 14 50 0
-43 6 14 0
-14 -13 -11 0
-15 -32 49 0
-35 14 45 0
6 -40 -19 0
49 -43 17 0
20 26 -33 0
45 -21 -40 0
-27 -8 35 0
28 9 3 0
-6 -42 -12 0
-14 23 -33 0
-24 13 -22 0
-43 -19 -18 0
-19 -40 -4 0
7 -22 -24 0
22 10 -36 0
21 -48 -30 0
28 -27 -9 0
49 37 -4 0
-34 10 7 0
4 38 -12 0
39 -50 -37 0
-27 18 -7 0
-15 34 -26 0
-10 28 11 0
37 -25 -41 0
-31 -9 2 0
31 40 -37 0
-29 -33 -47 0
-18 41 -9 0
28 -29 -16 0
-43 -15 -24 0
-26 21 -9 0
42 -49 -22 0
2 28 -6 0
35 37 5 0
-28 -7 49 0
13 -42 1 0
23 19 -26 0
29 27 -44 0
13 23 -35 0
-35 19 -21 0
-17 -10 -34 0
9 -41 45 0
9 -27 -35 0
35 33 12 0
35 -2 -49 0
-22 -9 38 0
-42 8 18 0
-24 -40 26 0
11 19 6 0
-41 -37 -24 0
21 19 30 0
-17 -34 49 0
29 -39 18 0
-45 -2 -12 0
46 28 38 0
-9 20 -8 0
19 29 -10 0
-33 42 -6 0
45 50 27 0
-13 9 7 0
27 -12 49 0
-6 -48 -45 0
31 28 -21 0
14 -5 49 0
19 -49 34 0
-2 -41 -23 0
6 -21 -49 0
17 29 -4 0
15 -8 -36 0
-1 -36 28 0
-42 41 -14 0
-19 33 -32 0
20 -2 -16 0
-36 -1 -39 0
42 12 -22 0
-50 -31 8 0
23 14 22 0
36 -8 -48 0
35 20 -29 0
5 -14 31 0
-23 30 -24 0
22 -46 -48 0
-47 -9 -25 0
-17 37 -38 0
9 27 34 0
-10 9 36 0
18 44 41 0
-19 -14 -3 0
8 -37 27 0
-3 10 17 0
12 -32 47 0
-40 -9 -36 0
17 -44 -4 0
-14 -3 13 0
12 -34 47 0
35 -4 -11 0
-11 -35 15 0
-40 18 -42 0
-16 -36 32 0
12 -25 -33 0
-30 -23 21 0
-2 22 12 0
43 11 -40 0
36 -44 -9 0
-2 27 -33 0
-6 21 48 0
-27 -35 44 0
-38 -21 10 0
22 35 31 0
32 10 -40 0
-29 38 -1 0
-1 28 12 0
-32 -48 46 0
-8 40 -19 0
34 23 -49 0
23 -9 18 0
11 29 27 0
1 -34 20 0
-6 24 -29 0
28 24 20 0
-27 38 46 0
46 -18 37 0
-49 31 40 0
-3 -2 -48 0
-18 -3 41 0
3 37 24 0
28 20 25 0
-36 -9 46 0
7 40 -1 0
-43 -44 5 0
4 -20 -13 0
36 -12 -46 0
-35 32 -19 0
-43 8 7 0
15 -18 -12 0
34 47 -16 0
-4 -28 12 0
-28 -25 -49 0
-20 -22 -19 0
11 -16 -18 0
-14 31 -27 0
25 48 24 0
-39 -33 -21 0
47 -43 -9 0
24 -47 35 0
12 -41 -16 0
17 9 -27 0
36 6 34 0
-48 -49 37 0
-3 7 38 0
33 -2 -30 0
-2 1 13 0
-17 -18 -42 0
-10 -30 8 0
-32 26 5 0
9 -50 36 0
46 34 -1 0
10 -43 6 0
-26 -5 25 0
21 23 -41 0
29 35 10 0
7 -30 1 0
27 28 -25 0
39 4 50 0
4 -29 -25 0
-15 39 -34 0
-24 18 14 0
8 -13 3 0
-12 38 32 0
-30 46 20 0
37 -14 -35 0
-24 -38 43 0
-4 -21 -9 0
20 50 24 0
5 -7 16 0
-42 -20 26 0
40 -28 -32 0
8 9 11 0
38 37 -15 0
37 -39 -40 0
50 16 43 0
-20 6 -23 0
21 3 19 0
-31 7 -42 0
16 -9 -13 0
29 19 7 0
7 2 17 0
12 32 43 0
24 25 34 0
38 -3 -20 0
-46 -15 44 0
-5 -11 39 0
23 39 -41 0
-15 -10 -1 0
-43 46 40 0
43 -7 31 0
28 -24 34 0
-18 -42 -23 0
21 20 -40 0
-45 41 -35 0
-45 -10 6 0
48 -35 32 0
16 9 -30 0
